Tp2_ACN.sol
solution status: optimal solution found
objective value:                              2904500
x#1$Producto A                                    120 	(obj:370)
x#1$Producto B                                    120 	(obj:370)
x#1$Producto C                                     40 	(obj:370)
x#1$Producto D                                     55 	(obj:370)
x#1$Producto E                                     95 	(obj:370)
x#2$Producto A                                     95 	(obj:370)
x#2$Producto B                                    120 	(obj:370)
x#2$Producto E                                     25 	(obj:370)
x#3$Producto A                                    105 	(obj:370)
x#3$Producto B                                    120 	(obj:370)
x#3$Producto D                                     20 	(obj:370)
x#3$Producto E                                     95 	(obj:370)
x#4$Producto A                                     15 	(obj:370)
x#4$Producto B                                    120 	(obj:370)
x#4$Producto C                                     20 	(obj:370)
x#4$Producto E                                     25 	(obj:370)
x#5$Producto A                                    105 	(obj:370)
x#5$Producto B                                    120 	(obj:370)
x#5$Producto C                                     30 	(obj:370)
x#5$Producto D                                     45 	(obj:370)
x#5$Producto E                                     95 	(obj:370)
x#6$Producto A                                     15 	(obj:370)
x#6$Producto B                                    120 	(obj:370)
x#6$Producto C                                     50 	(obj:370)
x#6$Producto D                                     70 	(obj:370)
x#6$Producto E                                     25 	(obj:370)
x#7$Producto A                                    120 	(obj:370)
x#7$Producto B                                    120 	(obj:370)
x#7$Producto C                                     90 	(obj:370)
x#7$Producto D                                    120 	(obj:370)
x#7$Producto E                                     95 	(obj:370)
x#8$Producto A                                    120 	(obj:370)
x#8$Producto B                                    120 	(obj:370)
x#8$Producto C                                    120 	(obj:370)
x#8$Producto D                                    110 	(obj:370)
x#8$Producto E                                    120 	(obj:370)
x#9$Producto A                                    120 	(obj:370)
x#9$Producto B                                    120 	(obj:370)
x#9$Producto C                                    105 	(obj:370)
x#9$Producto D                                    120 	(obj:370)
x#9$Producto E                                    120 	(obj:370)
x#10$Producto A                                   105 	(obj:370)
x#10$Producto B                                   120 	(obj:370)
x#10$Producto D                                    15 	(obj:370)
x#10$Producto E                                   120 	(obj:370)
x#11$Producto A                                     5 	(obj:370)
x#11$Producto B                                   120 	(obj:370)
x#11$Producto C                                    10 	(obj:370)
x#11$Producto D                                    15 	(obj:370)
x#11$Producto E                                    25 	(obj:370)
x#12$Producto A                                    55 	(obj:370)
x#12$Producto B                                    55 	(obj:370)
x#12$Producto C                                    10 	(obj:370)
x#12$Producto D                                    15 	(obj:370)
x#13$Producto A                                    40 	(obj:370)
x#13$Producto B                                    65 	(obj:370)
x#13$Producto C                                    15 	(obj:370)
x#13$Producto D                                    20 	(obj:370)
x#13$Producto E                                    45 	(obj:370)
x#14$Producto A                                    80 	(obj:370)
x#14$Producto B                                    80 	(obj:370)
x#15$Producto A                                    40 	(obj:370)
x#15$Producto B                                    40 	(obj:370)
x#15$Producto C                                    15 	(obj:370)
x#15$Producto D                                    20 	(obj:370)
x#15$Producto E                                    35 	(obj:370)
x#16$Producto A                                    80 	(obj:370)
x#16$Producto B                                    80 	(obj:370)
x#16$Producto C                                    50 	(obj:370)
x#16$Producto D                                    45 	(obj:370)
x#16$Producto E                                    85 	(obj:370)
x#17$Producto A                                    40 	(obj:370)
x#17$Producto B                                    40 	(obj:370)
x#17$Producto C                                    65 	(obj:370)
x#17$Producto D                                    40 	(obj:370)
x#17$Producto E                                    35 	(obj:370)
x#18$Producto A                                   120 	(obj:370)
x#18$Producto B                                   120 	(obj:370)
x#18$Producto C                                    55 	(obj:370)
x#18$Producto D                                    80 	(obj:370)
x#18$Producto E                                   120 	(obj:370)
x#19$Producto A                                   120 	(obj:370)
x#19$Producto B                                   120 	(obj:370)
x#19$Producto C                                    65 	(obj:370)
x#19$Producto D                                    90 	(obj:370)
x#19$Producto E                                   120 	(obj:370)
x#20$Producto A                                   120 	(obj:370)
x#20$Producto B                                   120 	(obj:370)
x#20$Producto C                                   105 	(obj:370)
x#20$Producto D                                   110 	(obj:370)
x#20$Producto E                                   120 	(obj:370)
x#21$Producto A                                   120 	(obj:370)
x#21$Producto B                                   120 	(obj:370)
x#21$Producto C                                    85 	(obj:370)
x#21$Producto D                                   120 	(obj:370)
x#21$Producto E                                   120 	(obj:370)
x#22$Producto A                                   110 	(obj:370)
x#22$Producto B                                   120 	(obj:370)
x#22$Producto D                                    30 	(obj:370)
x#22$Producto E                                   120 	(obj:370)
x#23$Producto E                                    10 	(obj:370)
s#1$Producto A                                    100 	(obj:0)
s#1$Producto B                                     90 	(obj:0)
s#1$Producto C                                     30 	(obj:0)
s#1$Producto D                                     40 	(obj:0)
s#1$Producto E                                     80 	(obj:0)
s#2$Producto A                                    170 	(obj:0)
s#2$Producto B                                    170 	(obj:0)
s#2$Producto C                                     15 	(obj:0)
s#2$Producto D                                     20 	(obj:0)
s#2$Producto E                                     90 	(obj:0)
s#3$Producto A                                    245 	(obj:0)
s#3$Producto B                                    250 	(obj:0)
s#3$Producto D                                     20 	(obj:0)
s#3$Producto E                                    165 	(obj:0)
s#4$Producto A                                    220 	(obj:0)
s#4$Producto B                                    325 	(obj:0)
s#4$Producto E                                    165 	(obj:0)
s#5$Producto A                                    265 	(obj:0)
s#5$Producto B                                    355 	(obj:0)
s#5$Producto E                                    190 	(obj:0)
s#6$Producto A                                    180 	(obj:0)
s#6$Producto B                                    335 	(obj:0)
s#6$Producto E                                    115 	(obj:0)
s#7$Producto A                                    120 	(obj:0)
s#7$Producto B                                    245 	(obj:0)
s#7$Producto D                                     15 	(obj:0)
s#7$Producto E                                     60 	(obj:0)
s#8$Producto A                                     30 	(obj:0)
s#8$Producto B                                    115 	(obj:0)
s#8$Producto C                                     15 	(obj:0)
s#8$Producto E                                     20 	(obj:0)
s#9$Producto B                                     65 	(obj:0)
s#9$Producto C                                     45 	(obj:0)
s#9$Producto D                                     35 	(obj:0)
s#10$Producto A                                    45 	(obj:0)
s#10$Producto B                                   125 	(obj:0)
s#10$Producto C                                    15 	(obj:0)
s#10$Producto D                                    20 	(obj:0)
s#10$Producto E                                    50 	(obj:0)
s#11$Producto A                                    20 	(obj:0)
s#11$Producto B                                   205 	(obj:0)
s#11$Producto C                                    10 	(obj:0)
s#11$Producto D                                    15 	(obj:0)
s#11$Producto E                                    35 	(obj:0)
s#12$Producto A                                    55 	(obj:0)
s#12$Producto B                                   235 	(obj:0)
s#12$Producto C                                    10 	(obj:0)
s#12$Producto D                                    15 	(obj:0)
s#12$Producto E                                    15 	(obj:0)
s#13$Producto A                                    75 	(obj:0)
s#13$Producto B                                   270 	(obj:0)
s#13$Producto C                                    15 	(obj:0)
s#13$Producto D                                    20 	(obj:0)
s#13$Producto E                                    45 	(obj:0)
s#14$Producto A                                   130 	(obj:0)
s#14$Producto B                                   310 	(obj:0)
s#14$Producto E                                    30 	(obj:0)
s#15$Producto A                                   140 	(obj:0)
s#15$Producto B                                   310 	(obj:0)
s#15$Producto E                                    45 	(obj:0)
s#16$Producto A                                   180 	(obj:0)
s#16$Producto B                                   345 	(obj:0)
s#16$Producto C                                    30 	(obj:0)
s#16$Producto D                                    25 	(obj:0)
s#16$Producto E                                   105 	(obj:0)
s#17$Producto A                                   160 	(obj:0)
s#17$Producto B                                   295 	(obj:0)
s#17$Producto C                                    65 	(obj:0)
s#17$Producto D                                    20 	(obj:0)
s#17$Producto E                                    70 	(obj:0)
s#18$Producto A                                   180 	(obj:0)
s#18$Producto B                                   275 	(obj:0)
s#18$Producto C                                    70 	(obj:0)
s#18$Producto D                                    30 	(obj:0)
s#18$Producto E                                    90 	(obj:0)
s#19$Producto A                                   120 	(obj:0)
s#19$Producto B                                   185 	(obj:0)
s#19$Producto C                                    45 	(obj:0)
s#19$Producto D                                    15 	(obj:0)
s#19$Producto E                                    60 	(obj:0)
s#20$Producto A                                    30 	(obj:0)
s#20$Producto B                                    55 	(obj:0)
s#20$Producto C                                    45 	(obj:0)
s#20$Producto E                                    20 	(obj:0)
s#21$Producto B                                     5 	(obj:0)
s#21$Producto C                                    55 	(obj:0)
s#21$Producto D                                    35 	(obj:0)
s#22$Producto A                                    50 	(obj:0)
s#22$Producto B                                    65 	(obj:0)
s#22$Producto C                                    25 	(obj:0)
s#22$Producto D                                    35 	(obj:0)
s#22$Producto E                                    50 	(obj:0)
s#23$Producto A                                    20 	(obj:0)
s#23$Producto B                                    25 	(obj:0)
s#23$Producto C                                    10 	(obj:0)
s#23$Producto D                                    15 	(obj:0)
s#23$Producto E                                    20 	(obj:0)
